letting maxWeight=97
letting values=[49, 57, 53, 49, 45, 4, 16, 18, 38, 31, 4, 35, 60, 2, 57, 34, 39, 46, 33, 43, 30, 58, 50, 47, 6, 52, 3, 45, 56, 40, 8, 46, 40, 16, 36, 39, 56, 35, 57, 52, 32, 35, 17, 2, 29, 49, 9, 47, 33, 45, 43, 30, 44, 59, 21, 21, 21, 29, 16, 42, 4, 46, 6, 55, 1, 56, 28, 50, 32, 27, 31, 59, 38, 54, 6, 53, 29]
letting weights=[16, 16, 31, 26, 22, 26, 4, 23, 7, 24, 32, 33, 3, 32, 2, 19, 21, 17, 3, 1, 6, 29, 21, 2, 8, 3, 27, 30, 11, 19, 28, 8, 25, 33, 25, 4, 27, 7, 30, 7, 3, 2, 13, 31, 13, 31, 11, 33, 16, 2, 17, 18, 32, 22, 23, 26, 24, 15, 29, 33, 32, 21, 32, 29, 30, 20, 15, 31, 9, 28, 10, 4, 15, 18, 27, 5, 4]
